%%% static parameters %%%
timespan = 1;
Fact = [2];
Distr1 = [5];
Distr2 = [10];
Clients_N = [60];
Demand_W = [15];
Lt0 = [4];
Lt1 = [4];
SS_ = [0.85];
DS_D = [8];
K = [200];
MA = [500];
%%% dynamic parameters %%%
lost_ratio_sales_ret_th = 0.02815122889187982;
lost_ratio_sales_ret_w = 60;
lost_ratio_sales_dis_th = 0.6158921929551185;
lost_ratio_sales_dis_w = 4;
lost_ratio_sales_fac_th = 0.28159082797372736;
lost_ratio_sales_fac_w = 13;
stock_customer_MA_mean_relative_th = 0.6747841334255562;
stock_customer_MA_mean_relative_w = 43;
stock_distributor_MA_mean_relative_th = 0.3439675068564979;
stock_distributor_MA_mean_relative_w = 43;
stock_retailer_MA_mean_relative_th = 0.890563481606502;
stock_retailer_MA_mean_relative_w = 93;
stock_factory_MA_mean_relative_th = 0.6130730072996328;
stock_factory_MA_mean_relative_w = 32;
